106400
107404
104337
106332
108441
107787
105881
108017
107008
107000
110331
104137
105904
105256
104961
106507
106768
106532
106360
109781
105167
104699
107547
104927
106516
106918
104087
104082
107807
103876
107387
108745
106632
108299
106297
103524
109003
107253
110651
106381
108538
105265
109714
109032
103763
105391
106852
103689
106173
109017
110696
107003
107572
111002
108843
109024
102751
105782
102928
104414
106135
109378
103798
100677
107248
106794
107113
106659
109536
106620
107303
108947
103816
103734
104516
106939
106350
111403
105469
107629
109051
105281
108640
105522
104620
106509
105542
103912
107501
108782
105110
108779
106209
108756
112831
104192
106636
109534
104618
105246
